letting n =  10
letting blocks =  [[1, 4], [2, 10], [3, 6], [4, 2], [4, 8], [5, 1], [5, 8], [6, 5], [6, 6], [7, 1], [7, 2], [7, 4], [8, 6], [8, 9], [8, 10], [9, 1], [9, 2], [9, 4], [9, 5], [9, 6], [9, 9], [10, 2]]
